(set-logic QF_FF)
(define-sort FF0 () (_ FiniteField 21888242871839275222246405745257275088548364400416034343698204186575808495617))
(declare-fun s_1 () FF0)
(declare-fun s_1_aux () FF0)
(declare-fun s_2 () FF0)
(declare-fun s_3 () FF0)
(declare-fun s_3_aux () FF0)
(assert (= (ff.add (ff.mul s_1 (as ff21888242871839275222246405745257275088548364400416034343698204186575808495616 FF0)) (as ff1 FF0) ) (ff.mul s_2  s_3 )))
(assert (= (ff.add (ff.mul s_1_aux (as ff21888242871839275222246405745257275088548364400416034343698204186575808495616 FF0)) (as ff1 FF0) ) (ff.mul s_2  s_3_aux )))
(assert (=> (and (= s_2 s_2) (= s_3 s_3_aux) ) (= s_1 s_1_aux)))
(assert (= (as ff0 FF0) (ff.mul s_2  s_1 )))
(assert (= (as ff0 FF0) (ff.mul s_2  s_1_aux )))
(assert (not (= s_1 s_1_aux)))
(check-sat)
